c File: instances/32_0.30_3.col
c
c Description: Random graph of size 32 vertices and P(0.3) of edges between any two vertices.
p col 32 496
e 1 6
e 1 10
e 1 13
e 1 19
e 1 20
e 1 23
e 1 24
e 1 29
e 1 32
e 2 8
e 2 10
e 2 11
e 2 12
e 2 16
e 2 17
e 2 18
e 2 27
e 2 30
e 3 4
e 3 8
e 3 16
e 3 30
e 3 31
e 4 10
e 4 17
e 4 18
e 4 26
e 4 27
e 4 28
e 4 32
e 5 7
e 5 11
e 5 13
e 5 14
e 5 17
e 5 22
e 5 29
e 5 30
e 5 31
e 6 11
e 6 15
e 6 20
e 6 23
e 6 25
e 6 27
e 7 9
e 7 16
e 7 17
e 7 19
e 7 20
e 7 21
e 7 22
e 7 24
e 7 27
e 7 28
e 7 31
e 8 10
e 8 16
e 8 18
e 8 19
e 8 20
e 8 23
e 8 26
e 8 32
e 9 13
e 9 14
e 9 15
e 9 18
e 9 24
e 9 29
e 9 30
e 10 15
e 10 23
e 10 27
e 10 29
e 10 30
e 10 31
e 11 21
e 11 24
e 11 31
e 12 24
e 13 14
e 13 21
e 13 25
e 13 32
e 14 16
e 14 17
e 14 18
e 14 19
e 14 23
e 14 27
e 14 29
e 14 30
e 14 32
e 15 18
e 15 25
e 15 26
e 15 30
e 16 19
e 16 23
e 16 26
e 16 28
e 16 30
e 17 22
e 17 24
e 17 28
e 18 19
e 18 20
e 18 26
e 18 27
e 18 30
e 18 32
e 19 24
e 19 25
e 19 26
e 19 30
e 19 31
e 19 32
e 20 28
e 20 32
e 21 25
e 21 29
e 22 24
e 22 25
e 22 26
e 22 27
e 22 30
e 22 31
e 23 25
e 23 27
e 23 31
e 24 25
e 24 26
e 24 30
e 24 31
e 25 28
e 25 30
e 25 32
e 26 27
e 26 28
e 26 29
e 27 29
e 27 32
e 28 32
e 30 32